single_objective/SL-DABL/OP/problems/op/OPLib-master/solutions/ea4op/gen1/u159-gen1-50.sol
NAME : u159
TYPE : OP
DIMENSION : 159
COST_LIMIT : 21040
ROUTE_NODES : 92
ROUTE_SCORE : 92
ROUTE_COST : 20921
NODE_SEQUENCE_SECTION
1
159
126
127
128
129
130
123
122
121
120
119
91
90
89
88
87
96
95
105
104
103
102
101
100
99
98
97
86
85
84
83
82
81
80
79
78
72
71
70
69
68
67
66
65
64
62
63
54
53
52
51
50
49
48
47
46
45
44
43
40
39
38
36
37
138
140
139
141
145
144
143
13
11
10
9
8
147
146
149
148
151
7
152
153
154
155
157
156
5
4
2
-1
DEPOT_SECTION
1
-1
EOF
